SCIP Status        : solving was interrupted [time limit reached]
Total Time         :    3600.01
  solving          :    3600.00
  presolving       :       0.49 (included in solving)
  reading          :       0.01
  copying          :       1.16 (78 #copies) (minimal 0.00, maximal 0.04, average 0.01)
Original Problem   :
  Problem name     : bbbenchmark/pw09_100.1.cut
  Variables        : 101 (100 binary, 0 integer, 0 implicit integer, 1 continuous)
  Constraints      : 1 initial, 1 maximal
  Objective        : minimize, 1 non-zeros (abs.min = 1, abs.max = 1)
Presolved Problem  :
  Problem name     : t_bbbenchmark/pw09_100.1.cut
  Variables        : 1290 (100 binary, 0 integer, 1140 implicit integer, 50 continuous)
  Constraints      : 1288 initial, 4613 maximal
  Objective        : minimize, 1 non-zeros (abs.min = 1, abs.max = 1)
  Nonzeros         : 11585 constraint, 202 clique table
Presolvers         :   ExecTime  SetupTime  Calls  FixedVars   AggrVars   ChgTypes  ChgBounds   AddHoles    DelCons    AddCons   ChgSides   ChgCoefs
  boundshift       :       0.00       0.00      0          0          0          0          0          0          0          0          0          0
  convertinttobin  :       0.00       0.00      0          0          0          0          0          0          0          0          0          0
  domcol           :       0.00       0.00      1          0          0          0          0          0          0          0          0          0
  dualagg          :       0.00       0.00      0          0          0          0          0          0          0          0          0          0
  dualcomp         :       0.00       0.00      1          0          0          0          0          0          0          0          0          0
  dualinfer        :       0.00       0.00      0          0          0          0          0          0          0          0          0          0
  dualsparsify     :       0.00       0.00      1          0          0          0          0          0          0          0          0          0
  gateextraction   :       0.00       0.00      0          0          0          0          0          0          0          0          0          0
  implics          :       0.00       0.00      2          0          0          0          0          0          0          0          0          0
  inttobinary      :       0.00       0.00      0          0          0          0          0          0          0          0          0          0
  qpkktref         :       0.00       0.00      0          0          0          0          0          0          0          0          0          0
  redvub           :       0.00       0.00      0          0          0          0          0          0          0          0          0          0
  sparsify         :       0.00       0.00      1          0          0          0          0          0          0          0          0          0
  stuffing         :       0.00       0.00      0          0          0          0          0          0          0          0          0          0
  trivial          :       0.00       0.00      4          0          0          0          0          0          0          0          0          0
  tworowbnd        :       0.00       0.00      0          0          0          0          0          0          0          0          0          0
  dualfix          :       0.00       0.00      4          0          0          0          0          0          0          0          0          0
  genvbounds       :       0.00       0.00      0          0          0          0          0          0          0          0          0          0
  probing          :       0.26       0.00      1          0          0          0          0          0          0          0          0          0
  pseudoobj        :       0.00       0.00      1          0          0          0          1          0          0          0          0          0
  symmetry         :       0.00       0.00      0          0          0          0          0          0          0          0          0          0
  vbounds          :       0.00       0.00      1          0          0          0          0          0          0          0          0          0
  varbound         :       0.00       0.00      2          0          0          0          0          0          0          0          0          0
  and              :       0.01       0.00      2          0          0          0          0          0          0          0          0          0
  linear           :       0.00       0.00      2          0          0          0          0          0          0          0          0          0
  logicor          :       0.00       0.00      0          0          0          0          0          0          0          0          0          0
  bounddisjunction :       0.00       0.00      0          0          0          0          0          0          0          0          0          0
  nonlinear        :       0.20       0.01      5          0          0          0          1          0          0       1287          0          0
  benders          :       0.00       0.00      0          0          0          0          0          0          0          0          0          0
  components       :       0.00       0.00      1          0          0          0          0          0          0          0          0          0
  root node        :          -          -      -          0          -          -          8          -          -          -          -          -
Constraints        :     Number  MaxNumber  #Separate #Propagate    #EnfoLP    #EnfoRelax  #EnfoPS    #Check   #ResProp    Cutoffs    DomReds       Cuts    Applied      Conss   Children
  benderslp        :          0          0          0          0     485995          0          0      38400          0          0          0          0          0          0          0
  integral         :          0          0          0          0     485995          0          0      38400          0          0         22          0          0          2     971942
  varbound         :         49         49         38    2062554          0          0          0       3529          0          0     250428          0          0          0          0
  and              :       1140       1140     530728    2095423          4          0          0       3529     157320          0     487139        948        701          0          0
  linear           :         99+       169         38    2095544          4          0          0       3527      26566        537   11195992          0          0          0          0
  logicor          :          0+      1660          0     139883          0          0          0          0          3        281          0          0          0          0          0
  bounddisjunction :          0+      1664          0     175466          0          0          0          0          3         91          0          0          0          0          0
  benders          :          0          0          0          0          4          0          0         18          0          0          0          0          0          0          0
  countsols        :          0          0          0          0          4          0          0         18          0          0          0          0          0          0          0
  components       :          0          0          0          0          0          0          0          0          0          0          0          0          0          0          0
Constraint Timings :  TotalTime  SetupTime   Separate  Propagate     EnfoLP     EnfoPS     EnfoRelax   Check    ResProp    SB-Prop
  benderslp        :       0.50       0.00       0.00       0.00       0.43       0.00       0.00       0.07       0.00       0.00
  integral         :      87.68       0.00       0.00       0.00      87.44       0.00       0.00       0.24       0.00       0.00
  varbound         :       4.47       0.00       0.00       4.43       0.00       0.00       0.00       0.02       0.00       0.02
  and              :     147.69       0.00     115.85      30.64       0.00       0.00       0.00       0.78       0.07       0.35
  linear           :      60.34       0.00       0.04      60.07       0.00       0.00       0.00       0.05       0.06       0.12
  logicor          :       5.66       0.00       0.00       5.66       0.00       0.00       0.00       0.00       0.00       0.00
  bounddisjunction :       6.71       0.00       0.00       6.71       0.00       0.00       0.00       0.00       0.00       0.00
  benders          :       0.00       0.00       0.00       0.00       0.00       0.00       0.00       0.00       0.00       0.00
  countsols        :       0.00       0.00       0.00       0.00       0.00       0.00       0.00       0.00       0.00       0.00
  components       :       0.59       0.00       0.00       0.59       0.00       0.00       0.00       0.00       0.00       0.00
Propagators        : #Propagate   #ResProp    Cutoffs    DomReds
  dualfix          :          2          0          0          0
  genvbounds       :          0          0          0          0
  nlobbt           :          0          0          0          0
  obbt             :          0          0          0          0
  probing          :          0          0          0          0
  pseudoobj        :    2134255          1          0         31
  redcost          :    1043211          0          0     222854
  rootredcost      :         11          0          0          0
  symmetry         :          0          0          0          0
  vbounds          :     344397          0          0          0
Propagator Timings :  TotalTime  SetupTime   Presolve  Propagate    ResProp    SB-Prop
  dualfix          :       0.00       0.00       0.00       0.00       0.00       0.00
  genvbounds       :       1.46       0.00       0.00       1.45       0.00       0.01
  nlobbt           :       0.00       0.00       0.00       0.00       0.00       0.00
  obbt             :       0.00       0.00       0.00       0.00       0.00       0.00
  probing          :       0.26       0.00       0.26       0.00       0.00       0.00
  pseudoobj        :       2.72       0.00       0.00       2.72       0.00       0.00
  redcost          :      37.01       0.00       0.00      37.00       0.00       0.01
  rootredcost      :       2.00       0.00       0.00       2.00       0.00       0.00
  symmetry         :       1.25       0.00       0.00       1.25       0.00       0.00
  vbounds          :       1.97       0.00       0.00       1.97       0.00       0.00
Conflict Analysis  :       Time      Calls    Success    DomReds  Conflicts   Literals    Reconvs ReconvLits   Dualrays   Nonzeros   LP Iters   (pool size: [10000,10000])
  propagation      :       0.01        372        244          -        369       76.1          0        0.0          -          -          -
  infeasible LP    :       0.88        663        663          -      22330      134.8          0        0.0       1085      143.9          0
  bound exceed. LP :      10.94       3999       3766          -      41958       97.6          0        0.0          0        0.0      52739
  strong branching :       0.00          0          0          -          0        0.0          0        0.0          -          -          0
  pseudo solution  :       0.00          0          0          -          0        0.0          0        0.0          -          -          -
  applied globally :       0.18          -          -          0      13885       93.8          -          -       1085          -          -
  applied locally  :          -          -          -          0          0        0.0          -          -          0          -          -
Separators         :   ExecTime  SetupTime      Calls  RootCalls    Cutoffs    DomReds  FoundCuts ViaPoolAdd  DirectAdd    Applied ViaPoolApp  DirectApp      Conss
  cut pool         :       4.23          -      52754         62          -          -      27731    1114889          -          -          -          -          -    (maximal pool size:       2453)
  aggregation      :     129.61       0.00       4742         38          0          0        293       4049          0         90         90          0          0
  > cmir           :          -          -          -          -          -          -          -       4049          0         90         90          0          -
  > flowcover      :          -          -          -          -          -          -          -          0          0          0          0          0          -
  > knapsackcover  :          -          -          -          -          -          -          -          0          0          0          0          0          -
  cgmip            :       0.00       0.00          0          0          0          0          0          0          0          0          0          0          0
  clique           :       0.00       0.00         38         38          0          0          0          0          0          0          0          0          0
  closecuts        :       0.00       0.00          0          0          0          0          0          0          0          0          0          0          0
  convexproj       :       0.00       0.00          0          0          0          0          0          0          0          0          0          0          0
  disjunctive      :       0.00       0.00          0          0          0          0          0          0          0          0          0          0          0
  eccuts           :       0.00       0.00          0          0          0          0          0          0          0          0          0          0          0
  gauge            :       0.00       0.00          0          0          0          0          0          0          0          0          0          0          0
  gomory           :       0.00       0.00          0          0          0          0          0          0          0          0          0          0          0
  > gomorymi       :          -          -          -          -          -          -          -          0          0          0          0          0          -
  > strongcg       :          -          -          -          -          -          -          -          0          0          0          0          0          -
  impliedbounds    :       0.21       0.00       4742         38          0          0          0          0          0          0          0          0          0
  interlattice     :       0.00       0.00          0          0          0          0          0          0          0          0          0          0          0
  interminor       :       0.00       0.00          0          0          0          0          0          0          0          0          0          0          0
  intersub         :       0.39       0.00         17         17          0          0         16          0         16         16          0         16          0
  intobj           :       0.00       0.00          0          0          0          0          0          0          0          0          0          0          0
  mcf              :       0.00       0.00          1          1          0          0          0          0          0          0          0          0          0
  minor            :       0.01       0.00          0          0          0          0          0          0          0          0          0          0          0
  mixing           :       0.05       0.00       4742         38          0          0          0          0          0          0          0          0          0
  oddcycle         :       0.00       0.00          0          0          0          0          0          0          0          0          0          0          0
  rapidlearning    :       0.04       0.00          0          0          0          0          0          0          0          0          0          0          0
  rlt              :       0.00       0.00         10         10          0          0          0          0          0          0          0          0          0
  zerohalf         :      17.97       0.00       4214         20          0          0      27438    1110840          0     219983     219983          0          0
Cutselectors       :   ExecTime  SetupTime      Calls  RootCalls   Selected     Forced   Filtered  RootSelec   RootForc   RootFilt 
  hybrid           :       0.90       0.00      29560         37     220790          0     895063        139          0          4
Pricers            :   ExecTime  SetupTime      Calls       Vars
  problem variables:       0.00          -          0          0
Branching Rules    :   ExecTime  SetupTime   BranchLP  BranchExt   BranchPS    Cutoffs    DomReds       Cuts      Conss   Children
  allfullstrong    :       0.00       0.00          0          0          0          0          0          0          0          0
  cloud            :       0.00       0.00          0          0          0          0          0          0          0          0
  distribution     :       0.00       0.00          0          0          0          0          0          0          0          0
  fullstrong       :       0.00       0.00          0          0          0          0          0          0          0          0
  inference        :       0.00       0.00          0          0          0          0          0          0          0          0
  leastinf         :       0.00       0.00          0          0          0          0          0          0          0          0
  lookahead        :       0.00       0.00          0          0          0          0          0          0          0          0
  mostinf          :       0.00       0.00          0          0          0          0          0          0          0          0
  multaggr         :       0.00       0.00          0          0          0          0          0          0          0          0
  nodereopt        :       0.00       0.00          0          0          0          0          0          0          0          0
  pscost           :       0.00       0.00          0          0          0          0          0          0          0          0
  random           :       0.00       0.00          0          0          0          0          0          0          0          0
  relpscost        :      85.92       0.00     485991          0          0          0         22          0          2     971942
  vanillafullstrong:       0.00       0.00          0          0          0          0          0          0          0          0
Primal Heuristics  :   ExecTime  SetupTime      Calls      Found       Best
  LP solutions     :       0.00          -          -          4          4
  relax solutions  :       0.00          -          -          0          0
  pseudo solutions :       0.00          -          -          0          0
  strong branching :       0.00          -          -          0          0
  actconsdiving    :       0.00       0.00          0          0          0
  adaptivediving   :       8.60       0.00        111          1          1
  alns             :       1.71       0.00         25          0          0
  bound            :       0.00       0.00          0          0          0
  clique           :       0.01       0.00          1          0          0
  coefdiving       :       0.00       0.00          0          0          0
  completesol      :       0.00       0.00          0          0          0
  conflictdiving   :     119.51       0.00        871          0          0
  crossover        :       6.66       0.00          7          1          1
  dins             :       0.00       0.00          0          0          0
  distributiondivin:      65.38       0.00        452          0          0
  dps              :       0.00       0.00          0          0          0
  dualval          :       0.00       0.00          0          0          0
  farkasdiving     :       0.04       0.00          0          0          0
  feaspump         :       0.15       0.00          1          0          0
  fixandinfer      :       0.00       0.00          0          0          0
  fracdiving       :      40.18       0.00        398          0          0
  gins             :       0.47       0.00          0          0          0
  guideddiving     :      38.64       0.00        364          0          0
  indicator        :       0.54       0.00          0          0          0
  indicatordiving  :       0.00       0.00          0          0          0
  intdiving        :       0.00       0.00          0          0          0
  intshifting      :       0.75       0.00        141          0          0
  linesearchdiving :      33.88       0.00        501          0          0
  localbranching   :       0.00       0.00          0          0          0
  locks            :       0.01       0.00          1          0          0
  lpface           :       0.60       0.00          0          0          0
  mpec             :      68.03       0.00         11          0          0
  multistart       :       0.00       0.00          0          0          0
  mutation         :       0.00       0.00          0          0          0
  nlpdiving        :      17.85       0.00          3          1          0
  objpscostdiving  :      25.10       0.00         99          3          1
  octane           :       0.00       0.00          0          0          0
  ofins            :       0.55       0.00          0          0          0
  oneopt           :       0.48       0.00         13          0          0
  padm             :       0.00       0.00          0          0          0
  proximity        :       0.00       0.00          0          0          0
  pscostdiving     :      41.86       0.00        301          3          3
  randrounding     :       2.23       0.00      38395          0          0
  rens             :       0.00       0.00          0          0          0
  reoptsols        :       0.00       0.00          0          0          0
  repair           :       0.00       0.00          0          0          0
  rins             :       2.58       0.00         46          0          0
  rootsoldiving    :      14.24       0.00        185          2          0
  rounding         :       2.26       0.00      10012          0          0
  shiftandpropagate:       0.00       0.00          0          0          0
  shifting         :      26.10       0.00       9113          1          1
  simplerounding   :       0.55       0.00          0          0          0
  subnlp           :     428.67       0.00          0          0          0
  trivial          :       0.02       0.00          2          2          2
  trivialnegation  :       0.00       0.00          0          0          0
  trustregion      :       0.00       0.00          0          0          0
  trysol           :       0.59       0.00          0          0          0
  twoopt           :       0.00       0.00          0          0          0
  undercover       :       5.11       0.00          1          1          1
  vbounds          :       0.00       0.00          0          0          0
  veclendiving     :      35.93       0.00        713          0          0
  zeroobj          :       0.00       0.00          0          0          0
  zirounding       :       0.78       0.00       1000          0          0
  other solutions  :          -          -          -          0          -
Diving (single)    :      Calls      Nodes   LP Iters Backtracks  Conflicts   MinDepth   MaxDepth   AvgDepth  RoundSols  NLeafSols  MinSolDpt  MaxSolDpt  AvgSolDpt
  actconsdiving    :          0          -          -          -          -          -          -          -          -          -          -          -          -
  coefdiving       :          0          -          -          -          -          -          -          -          -          -          -          -          -
  conflictdiving   :        871      38780    1085753        800      14542         62         88       77.9          0          -          -          -          -
  distributiondivin:        452      19370     367819        545       7700         61         92       75.4          0          -          -          -          -
  farkasdiving     :          0          -          -          -          -          -          -          -          -          -          -          -          -
  fracdiving       :        398      49557     368226        138       1115         73        484      155.5          0          -          -          -          -
  guideddiving     :        364      43619     369043         26        626         70        406      149.5          0          -          -          -          -
  indicatordiving  :          0          -          -          -          -          -          -          -          -          -          -          -          -
  linesearchdiving :        501      27823     365952         73      11004         71        106       87.8          0          -          -          -          -
  pscostdiving     :        301      14074     405368        288       4933         71         94       80.7          0          3         80         89       85.0
  veclendiving     :        713      34130     363256        459      23767         67         95       80.3          0          -          -          -          -
Diving (adaptive)  :      Calls      Nodes   LP Iters Backtracks  Conflicts   MinDepth   MaxDepth   AvgDepth  RoundSols  NLeafSols  MinSolDpt  MaxSolDpt  AvgSolDpt
  actconsdiving    :         13        636       8584         13        153         72         84       77.2          0          -          -          -          -
  coefdiving       :         13        744       6825         11        406         74         92       81.2          0          -          -          -          -
  conflictdiving   :          0          -          -          -          -          -          -          -          -          -          -          -          -
  distributiondivin:          0          -          -          -          -          -          -          -          -          -          -          -          -
  farkasdiving     :          0          -          -          -          -          -          -          -          -          -          -          -          -
  fracdiving       :          2        302       2389          0          0        163        170      166.5          0          -          -          -          -
  guideddiving     :          5        486       4520          1          4         80        173      128.4          0          -          -          -          -
  indicatordiving  :          0          -          -          -          -          -          -          -          -          -          -          -          -
  linesearchdiving :         57       3072      41128          4       1116         70         99       87.0          0          -          -          -          -
  pscostdiving     :         14        467      11118          7         99         69         86       77.4          0          1         80         80       80.0
  veclendiving     :          7        408       4643          6        257         69         86       78.6          0          -          -          -          -
Neighborhoods      :      Calls  SetupTime  SolveTime SolveNodes       Sols       Best       Exp3  EpsGreedy        UCB TgtFixRate  Opt  Inf Node Stal  Sol  Usr Othr Actv
  rens             :          2       0.02       0.04         52          0          0    0.00000   -1.00000    0.47405      0.850    0    1    0    1    0    0    0    1
  rins             :          2       0.06       0.16        143          0          0    0.00000   -1.00000    0.43705      0.850    0    1    0    1    0    0    0    1
  mutation         :          2       0.02       0.11         88          0          0    0.00000   -1.00000    0.46550      0.850    0    1    0    1    0    0    0    1
  localbranching   :          4       0.08       0.10        135          0          0    0.00000   -1.00000    0.47244      0.722    0    2    0    2    0    0    0    1
  crossover        :          4       0.09       0.29         77          0          0    0.00000   -1.00000    0.45439      0.522    0    3    0    1    0    0    0    1
  proximity        :          4       0.13       0.07         61          0          0    0.00000   -1.00000    0.49718      0.653    0    3    0    1    0    0    0    1
  zeroobjective    :          6       0.19       0.13        174          0          0    0.00000   -1.00000    0.45185      0.637    0    4    0    2    0    0    0    1
  dins             :          1       0.00       0.00          0          0          0    0.00000   -1.00000    0.07220      0.900    0    0    0    0    0    0    1    1
  trustregion      :          0       0.00       0.00          0          0          0    0.00000   -1.00000    1.00000      0.900    0    0    0    0    0    0    0    0
Expressions        :   #IntEval  IntEvalTi   #RevProp  RevPropTi    DomReds    Cutoffs  #Estimate  EstimTime  Branching  #Simplify SimplifyTi Simplified
  pow              :          0       0.00          0       0.00          0          0          0       0.00          0          0       0.00          0
  prod             :      17820       0.00          0       0.00          0          0          0       0.00          0      10050       0.01          0
  sum              :          8       0.00          2       0.00          0          0          0       0.00          0          3       0.04          2
  var              :       4679       0.00          0       0.00          0          0          0       0.00          0      21592       0.02          0
  varidx           :          0       0.00          0       0.00          0          0          0       0.00          0          0       0.00          0
LP                 :       Time      Calls Iterations  Iter/call   Iter/sec  Time-0-It Calls-0-It    ItLimit
  primal LP        :      97.78      21280          0       0.00       0.00      97.69      21280
  dual LP          :    1434.35     779569    7141680       9.68    4979.04      14.25      41689
  lex dual LP      :       0.00          0          0       0.00          -
  barrier LP       :       0.00          0          0       0.00          -       0.00          0
  resolve instable :       0.00          0          0       0.00          -
  diving/probing LP:     336.99      22970    3684363     160.40   10933.15
  strong branching :      12.46       1216      86667      71.27    6955.62          -          -       1250
    (at root node) :          -         19       3487     183.53          -
  conflict analysis:       5.83       5861      52739       9.00    9046.14
NLP relaxation     :
  solve time       :      17.41 (27 calls)
  convexity        :  nonconvex (148 linear rows, 0 convex ineq., 0 nonconvex ineq., 1140 nonlinear eq. or two-sided ineq.)
NLP Solvers        :  #Problems  ProblemTi    #Solves  SolveTime      #Iter  Time/Iter      #Okay #TimeLimit #IterLimit #LObjLimit #Interrupt  #NumError #EvalError  #OutOfMem #LicenseEr #OtherTerm   #GlobOpt    #LocOpt  #Feasible #LocInfeas #GlobInfea #Unbounded   #Unknown
  ipopt            :         12      19.10         67      85.29       1798       0.05         63          0          4          0          0          0          0          0          0          0          0         44          2         18          0          0          3
B&B Tree           :
  number of runs   :          1
  nodes            :     708327 (485971 internal, 222356 leaves)
  feasible leaves  :          4
  infeas. leaves   :          9
  objective leaves :     222343
  nodes (total)    :     708327 (485971 internal, 222356 leaves)
  nodes left       :     263596
  max depth        :         85
  max depth (total):         85
  backtracks       :     132170 (18.7%)
  early backtracks :          0 (0.0%)
  nodes exc. ref.  :          0 (0.0%)
  delayed cutoffs  :          0
  repropagations   :          7 (33 domain reductions, 0 cutoffs)
  avg switch length:       7.06
  switching time   :     242.84
Estim. Tree Size   :    1416694
Estimation Tree    : 971943 nodes (708347 visited, 485971 internal, 222376 leaves, 263596 open), weight: 0.0000 completed 0.0216
Estimations        :      estim      value      trend resolution     smooth
  wbe              :         in          -          -          -          -
  tree-profile     :         -1          -          -          -          -
  gap              :   38696360    0.60490    0.00001        256   38777543
  tree-weight      :    1416694    0.00000    0.00000        256    1415027
  leaf-frequency   :   17403001    0.31394    0.00001        256   16677589
  ssg              :   63391786    0.96593   -0.00001        256   63508792
  open-nodes       :    1416694 263596.00000  143.55042        256    1415027
Root Node          :
  First LP value   : -5.44713804713805e+00
  First LP Iters   :       2193 (10442.86 Iter/sec)
  First LP Time    :       0.21
  Final Dual Bound : -5.35293820609357e+00
  Final Root Iters :       3155
  Root LP Estimate : -2.74573127897009e+00
Solution           :
  Solutions found  :         19 (14 improvements)
  First Solution   : +1.00000000000000e+05   (in run 1, after 0 nodes, 0.03 seconds, depth 0, found by <trivial>)
  Gap First Sol.   :   infinite
  Gap Last Sol.    :      75.64 %
  Primal Bound     : -2.92592592592593e+00   (in run 1, after 15686 nodes, 286.33 seconds, depth 80, found by <relaxation>)
  Dual Bound       : -4.83704823576374e+00
  Gap              :      65.32 %
Integrals          :      Total       Avg%
  primal-dual      :  146815.04      40.78
  primal-ref       :          -          - (not evaluated)
  dual-ref         :          -          - (not evaluated)
